Route #1: 8 33 42 16 24 15 19
Route #2: 44 25 18 35 12 11
Route #3: 5 32 3 22 10 7 39 36
Route #4: 37 2 30 4 38
Route #5: 45 6 43 26 13 14 23
Route #6: 17 9
Route #7: 21 29 31 34 40 1 27 20 41 28
Cost 917
Time 0.05981
